
Gurobi 7.0.2 (linux64) logging started Thu Mar 17 14:09:31 2022


Gurobi 7.0.2 (linux64) logging started Thu Mar 17 14:10:48 2022


Gurobi 7.0.2 (linux64) logging started Thu Mar 17 14:11:07 2022


Gurobi 7.0.2 (linux64) logging started Thu Mar 17 14:11:18 2022

